proyfinal/src/viki/013/andrea/andrea-localstore/experimentInOfficeAgust.take6/worker_6/e610d244-943c-4ae6-9ccc-ec1cb43a6f41.als.cnf.out
Reading from standard input... Use '--help' for help.
============================[ Problem Statistics ]=============================
|                                                                             |
|  Number of variables:         87638                                         |
|  Number of clauses:          161767                                         |
|  Parse time:                   0.04 s                                       |
|                                                                             |
============================[ Search Statistics ]==============================
| Conflicts |          ORIGINAL         |          LEARNT          | Progress |
|           |    Vars  Clauses Literals |    Limit  Clauses Lit/Cl |          |
===============================================================================
|       100 |   63803   110371   275538 |    40469      100     27 | 27.197 % |
|       250 |   63803   110371   275538 |    44516      250     37 | 27.197 % |
|       475 |   63803   110371   275538 |    48967      475     70 | 27.197 % |
|       812 |   63803   110371   275538 |    53864      812     66 | 27.197 % |
|      1318 |   63802   110327   275448 |    59251     1313     61 | 27.198 % |
|      2077 |   63802   110327   275448 |    65176     2072     55 | 27.198 % |
|      3216 |   63802   110327   275448 |    71693     3211     55 | 27.198 % |
|      4924 |   63802   110327   275448 |    78863     4919     71 | 27.198 % |
|      7486 |   63802   110327   275448 |    86749     7481     73 | 27.198 % |
|     11330 |   55990    85820   215345 |    95424    11256     73 | 36.112 % |
|     17096 |   55890    85441   214476 |   104967    17000     81 | 36.226 % |
===============================================================================
restarts              : 85
conflicts             : 23484          (6778 /sec)
decisions             : 77295          (0.00 % random) (22308 /sec)
propagations          : 34226110       (9877745 /sec)
conflict literals     : 1883627        (43.45 % deleted)
Memory used           : 39.46 MB
CPU time              : 3.46497 s

INDETERMINATE
